data/lp_files/q3/47_9.lp
\ Model foo
\ LP format - for model browsing. Use MPS format to capture full model detail.
Minimize
  z
Subject To
 allocateEach[1]: x[1,1] + x[2,1] + x[3,1] = 1
 allocateEach[2]: x[1,2] + x[2,2] + x[3,2] = 1
 allocateEach[3]: x[1,3] + x[2,3] + x[3,3] = 1
 allocateEach[4]: x[1,4] + x[2,4] + x[3,4] = 1
 allocateEach[5]: x[1,5] + x[2,5] + x[3,5] = 1
 allocateEach[6]: x[1,6] + x[2,6] + x[3,6] = 1
 allocateEach[7]: x[1,7] + x[2,7] + x[3,7] = 1
 allocateAllCash: cashProportion[1] + cashProportion[2] + cashProportion[3]
   = 1
 findWorstP[1,2]: z + 0.2504570841786261 cashProportion[1]
   - 0.2504570841786261 cashProportion[2] + 0.1569364089463271 x[1,1]
   + 0.0180078643524432 x[1,2] + 0.2057254489443234 x[1,3]
   + 0.0733338342475017 x[1,4] + 0.1942044230721066 x[1,5]
   + 0.0945225035690135 x[1,6] + 0.00681243268965863 x[1,7]
   - 0.1569364089463271 x[2,1] - 0.0180078643524432 x[2,2]
   - 0.2057254489443234 x[2,3] - 0.0733338342475017 x[2,4]
   - 0.1942044230721066 x[2,5] - 0.0945225035690135 x[2,6]
   - 0.00681243268965863 x[2,7] >= 0
 findWorstP[1,3]: z + 0.2504570841786261 cashProportion[1]
   - 0.2504570841786261 cashProportion[3] + 0.1569364089463271 x[1,1]
   + 0.0180078643524432 x[1,2] + 0.2057254489443234 x[1,3]
   + 0.0733338342475017 x[1,4] + 0.1942044230721066 x[1,5]
   + 0.0945225035690135 x[1,6] + 0.00681243268965863 x[1,7]
   - 0.1569364089463271 x[3,1] - 0.0180078643524432 x[3,2]
   - 0.2057254489443234 x[3,3] - 0.0733338342475017 x[3,4]
   - 0.1942044230721066 x[3,5] - 0.0945225035690135 x[3,6]
   - 0.00681243268965863 x[3,7] >= 0
 findWorstP[2,1]: z - 0.1922744140437233 cashProportion[1]
   + 0.1922744140437233 cashProportion[2] - 0.1315733815301198 x[1,1]
   - 0.1764694572093291 x[1,2] - 0.0749870214770521 x[1,3]
   - 0.1088080909073429 x[1,4] - 0.0967524851468015 x[1,5]
   - 0.059182064642658 x[1,6] - 0.1599530850429733 x[1,7]
   + 0.1315733815301198 x[2,1] + 0.1764694572093291 x[2,2]
   + 0.0749870214770521 x[2,3] + 0.1088080909073429 x[2,4]
   + 0.0967524851468015 x[2,5] + 0.059182064642658 x[2,6]
   + 0.1599530850429733 x[2,7] >= 0
 findWorstP[2,3]: z + 0.1922744140437233 cashProportion[2]
   - 0.1922744140437233 cashProportion[3] + 0.1315733815301198 x[2,1]
   + 0.1764694572093291 x[2,2] + 0.0749870214770521 x[2,3]
   + 0.1088080909073429 x[2,4] + 0.0967524851468015 x[2,5]
   + 0.059182064642658 x[2,6] + 0.1599530850429733 x[2,7]
   - 0.1315733815301198 x[3,1] - 0.1764694572093291 x[3,2]
   - 0.0749870214770521 x[3,3] - 0.1088080909073429 x[3,4]
   - 0.0967524851468015 x[3,5] - 0.059182064642658 x[3,6]
   - 0.1599530850429733 x[3,7] >= 0
 findWorstP[3,1]: z - 0.1886436521411055 cashProportion[1]
   + 0.1886436521411055 cashProportion[3] - 0.1388039992454254 x[1,1]
   - 0.161950575363139 x[1,2] - 0.0555555555555556 x[1,3]
   - 0.16245991322392 x[1,4] - 0.1535559328428598 x[1,5]
   - 0.0638747406149783 x[1,6] - 0.0751556310130164 x[1,7]
   + 0.1388039992454254 x[3,1] + 0.161950575363139 x[3,2]
   + 0.0555555555555556 x[3,3] + 0.16245991322392 x[3,4]
   + 0.1535559328428598 x[3,5] + 0.0638747406149783 x[3,6]
   + 0.0751556310130164 x[3,7] >= 0
 findWorstP[3,2]: z - 0.1886436521411055 cashProportion[2]
   + 0.1886436521411055 cashProportion[3] - 0.1388039992454254 x[2,1]
   - 0.161950575363139 x[2,2] - 0.0555555555555556 x[2,3]
   - 0.16245991322392 x[2,4] - 0.1535559328428598 x[2,5]
   - 0.0638747406149783 x[2,6] - 0.0751556310130164 x[2,7]
   + 0.1388039992454254 x[3,1] + 0.161950575363139 x[3,2]
   + 0.0555555555555556 x[3,3] + 0.16245991322392 x[3,4]
   + 0.1535559328428598 x[3,5] + 0.0638747406149783 x[3,6]
   + 0.0751556310130164 x[3,7] >= 0
Bounds
 z <= 1
 -infinity <= cashProportion[1] <= 1
 -infinity <= cashProportion[2] <= 1
 -infinity <= cashProportion[3] <= 1
Binaries
 x[1,1] x[1,2] x[1,3] x[1,4] x[1,5] x[1,6] x[1,7] x[2,1] x[2,2] x[2,3]
 x[2,4] x[2,5] x[2,6] x[2,7] x[3,1] x[3,2] x[3,3] x[3,4] x[3,5] x[3,6]
 x[3,7]
End
